Problem:    
Rows:       256
Columns:    89 (72 integer, 72 binary)
Non-zeros:  960
Status:     INTEGER OPTIMAL
Objective:  value = 211.924373 (MINimum)

   No.   Row name        Activity     Lower bound   Upper bound
------ ------------    ------------- ------------- -------------
     1 r.5                   211.924             0               
     2 r.6                   141.157      -958.816               
     3 r.7                   1211.92             0               
     4 r.8                  -858.843      -958.884               
     5 r.9                   211.924             0               
     6 r.10                  120.729      -953.297               
     7 r.11                  1211.92             0               
     8 r.12                 -902.644        -956.6               
     9 r.13                  1211.92             0               
    10 r.14                 -882.282      -930.546               
    11 r.15                  211.924             0               
    12 r.16                  117.718        -931.6               
    13 r.17                  1211.92             0               
    14 r.18                 -951.736      -962.956               
    15 r.19                  211.924             0               
    16 r.20                  48.2638      -961.395               
    17 r.21                  211.924             0               
    18 r.22                  120.729      -966.362               
    19 r.23                  1211.92             0               
    20 r.24                 -948.729      -965.836               
    21 r.25                  1211.92             0               
    22 r.26                 -997.813      -997.813               
    23 r.27                  211.924             0               
    24 r.28                  19.2735      -966.763               
    25 r.29                  211.924             0               
    26 r.30                  211.924      -905.226               
    27 r.31                  1211.92             0               
    28 r.32                 -788.076      -929.233               
    29 r.33                  1211.92             0               
    30 r.34                 -788.076      -905.794               
    31 r.35                  211.924             0               
    32 r.36                  211.924      -929.769               
    33 r.37                        1             1             = 
    34 r.38                        1             1             = 
    35 r.39                        1             1             = 
    36 r.40                        1             1             = 
    37 r.41                        1             1             = 
    38 r.42                        1             1             = 
    39 r.43                        1             1             = 
    40 r.44                        1             1             = 
    41 r.45                     1000             2               
    42 r.46                    -1000         -1001               
    43 r.47                  1979.57      -953.297               
    44 r.48                        2             2               
    45 r.49                       -2         -1001               
    46 r.50                 -43.8006        -956.6               
    47 r.51                     1001             2               
    48 r.52                    -1001         -1001               
    49 r.53                  1976.56      -930.546               
    50 r.54                     1001             2               
    51 r.55                    -1001         -1001               
    52 r.56                  1976.56        -931.6               
    53 r.57                     1001             2               
    54 r.58                    -1001         -1001               
    55 r.59                  1907.11      -962.956               
    56 r.60                     1001             2               
    57 r.61                    -1001         -1001               
    58 r.62                  1907.11      -961.395               
    59 r.63                     1000             2               
    60 r.64                    -1000         -1001               
    61 r.65                  1979.57      -966.362               
    62 r.66                        2             2               
    63 r.67                       -2         -1001               
    64 r.68                 -89.8856      -965.836               
    65 r.69                  129.938      -958.816               
    66 r.70                 -870.062      -958.884               
    67 r.71                  129.938      -958.816               
    68 r.72                 -870.062      -958.884               
    69 r.73                  70.7674      -905.226               
    70 r.74                 -929.233      -929.233               
    71 r.75                  70.7674      -905.226               
    72 r.76                 -929.233      -929.233               
    73 r.77                     1001             2               
    74 r.78                    -1001         -1001               
    75 r.79                  2070.77      -905.794               
    76 r.80                     1001             2               
    77 r.81                    -1001         -1001               
    78 r.82                  2070.77      -929.769               
    79 r.83                     1000             2               
    80 r.84                    -1000         -1001               
    81 r.85                  2023.44       41.1838               
    82 r.86                        2             2               
    83 r.87                       -2         -1001               
    84 r.88                  41.1158       41.1158               
    85 r.89                     1001             2               
    86 r.90                    -1001         -1001               
    87 r.91                     2000      -930.546               
    88 r.92                     1001             2               
    89 r.93                    -1001         -1001               
    90 r.94                  2017.68        -931.6               
    91 r.95                     1001             2               
    92 r.96                    -1001         -1001               
    93 r.97                  1930.55      -962.956               
    94 r.98                     1001             2               
    95 r.99                    -1001         -1001               
    96 r.100                 1948.22      -961.395               
    97 r.101                    1000             2               
    98 r.102                   -1000         -1001               
    99 r.103                 2003.01      -966.362               
   100 r.104                       2             2               
   101 r.105                      -2         -1001               
   102 r.106                -48.7697      -965.836               
   103 r.107                 109.509      -953.297               
   104 r.108                -913.863        -956.6               
   105 r.109                 109.509      -953.297               
   106 r.110                -913.863        -956.6               
   107 r.111                    1000             2               
   108 r.112                   -1000         -1001               
   109 r.113                 2094.21      -905.226               
   110 r.114                       2             2               
   111 r.115                      -2         -1001               
   112 r.116                -888.117      -929.233               
   113 r.117                -905.794      -905.794               
   114 r.118                 94.2063      -929.769               
   115 r.119                -888.117      -905.794               
   116 r.120                 111.883      -929.769               
   117 r.121                    1001             2               
   118 r.122                   -1001         -1001               
   119 r.123                 2023.44       41.1838               
   120 r.124                    1001             2               
   121 r.125                   -1001         -1001               
   122 r.126                 2023.44       41.1158               
   123 r.127                    1001             2               
   124 r.128                   -1001         -1001               
   125 r.129                 2003.01       46.7033               
   126 r.130                    1001             2               
   127 r.131                   -1001         -1001               
   128 r.132                 1979.64       43.4002               
   129 r.133                -930.546      -930.546               
   130 r.134                 69.4543        -931.6               
   131 r.135                -930.546      -930.546               
   132 r.136                 69.4543        -931.6               
   133 r.137                    1001             2               
   134 r.138                   -1001         -1001               
   135 r.139                 2003.01      -966.362               
   136 r.140                    1001             2               
   137 r.141                   -1001         -1001               
   138 r.142                 1933.55      -965.836               
   139 r.143                -893.501      -930.546               
   140 r.144                 106.499        -931.6               
   141 r.145                -893.501      -930.546               
   142 r.146                 106.499        -931.6               
   143 r.147                    1001             2               
   144 r.148                   -1001         -1001               
   145 r.149                 2094.21      -905.226               
   146 r.150                    1001             2               
   147 r.151                   -1001         -1001               
   148 r.152                 2094.21      -929.233               
   149 r.153                -905.794      -905.794               
   150 r.154                 94.2063      -929.769               
   151 r.155                -905.794      -905.794               
   152 r.156                 94.2063      -929.769               
   153 r.157                    1001             2               
   154 r.158                   -1001         -1001               
   155 r.159                 2092.89       41.1838               
   156 r.160                    1001             2               
   157 r.161                   -1001         -1001               
   158 r.162                 2092.89       41.1158               
   159 r.163                    1001             2               
   160 r.164                   -1001         -1001               
   161 r.165                 2072.46       46.7033               
   162 r.166                    1001             2               
   163 r.167                   -1001         -1001               
   164 r.168                 2049.09       43.4002               
   165 r.169                    1001             2               
   166 r.170                   -1001         -1001               
   167 r.171                 2072.46      -966.362               
   168 r.172                    1001             2               
   169 r.173                   -1001         -1001               
   170 r.174                 2003.01      -965.836               
   171 r.175                -962.956      -962.956               
   172 r.176                 37.0445      -961.395               
   173 r.177                -962.956      -962.956               
   174 r.178                 37.0445      -961.395               
   175 r.179                    1001             2               
   176 r.180                   -1001         -1001               
   177 r.181                 2163.66      -905.226               
   178 r.182                    1001             2               
   179 r.183                   -1001         -1001               
   180 r.184                 2163.66      -929.233               
   181 r.185                -836.339      -905.794               
   182 r.186                 163.661      -929.769               
   183 r.187                -836.339      -905.794               
   184 r.188                 163.661      -929.769               
   185 r.189                    1000             2               
   186 r.190                   -1000         -1001               
   187 r.191                 2023.44       41.1838               
   188 r.192                       2             2               
   189 r.193                      -2         -1001               
   190 r.194                 87.2008       41.1158               
   191 r.195                    1000             2               
   192 r.196                   -1000         -1001               
   193 r.197                 2003.01       46.7033               
   194 r.198                       2             2               
   195 r.199                      -2         -1001               
   196 r.200                 43.4002       43.4002               
   197 r.201                    1001             2               
   198 r.202                   -1001         -1001               
   199 r.203                    2000       69.4543               
   200 r.204                    1001             2               
   201 r.205                   -1001         -1001               
   202 r.206                 2063.76       68.3996               
   203 r.207                    1001             2               
   204 r.208                   -1001         -1001               
   205 r.209                 1930.55       37.0445               
   206 r.210                    1001             2               
   207 r.211                   -1001         -1001               
   208 r.212                 1994.31       38.6048               
   209 r.213                 109.509      -966.362               
   210 r.214                -959.948      -965.836               
   211 r.215                 109.509      -966.362               
   212 r.216                -959.948      -965.836               
   213 r.217                 94.2063      -905.226               
   214 r.218                -905.794      -929.233               
   215 r.219                 157.968      -905.226               
   216 r.220                -842.032      -929.233               
   217 r.221                -905.794      -905.794               
   218 r.222                 94.2063      -929.769               
   219 r.223                -842.032      -905.794               
   220 r.224                 157.968      -929.769               
   221 r.225                    1000             2               
   222 r.226                   -1000         -1001               
   223 r.227                  1908.8       46.7033               
   224 r.228                       2             2               
   225 r.229                      -2         -1001               
   226 r.230                 885.432       43.4002               
   227 r.231                    1001             2               
   228 r.232                   -1001         -1001               
   229 r.233                 1905.79       69.4543               
   230 r.234                    1001             2               
   231 r.235                   -1001         -1001               
   232 r.236                 1905.79       68.3996               
   233 r.237                    1001             2               
   234 r.238                   -1001         -1001               
   235 r.239                 1836.34       37.0445               
   236 r.240                    1001             2               
   237 r.241                   -1001         -1001               
   238 r.242                 1836.34       38.6048               
   239 r.243                    1001             2               
   240 r.244                   -1001         -1001               
   241 r.245                    2000      -905.794               
   242 r.246                    1001             2               
   243 r.247                   -1001         -1001               
   244 r.248                    2000      -929.769               
   245 r.249                    1001             2               
   246 r.250                   -1001         -1001               
   247 r.251                 1929.23       41.1838               
   248 r.252                    1001             2               
   249 r.253                   -1001         -1001               
   250 r.254                 1929.23       41.1158               
   251 r.255                    1001             2               
   252 r.256                   -1001         -1001               
   253 r.257                    2000        94.774               
   254 r.258                    1001             2               
   255 r.259                   -1001         -1001               
   256 r.260                    2000       70.7674               

   No. Column name       Activity     Lower bound   Upper bound
------ ------------    ------------- ------------- -------------
     1 tt                    211.924             0               
     2 s_1_1        *              0             0             1 
     3 t_1_1                 70.7674             0               
     4 s_1_7        *              0             0             1 
     5 s_2_1        *              1             0             1 
     6 t_2_1                 70.7674             0               
     7 s_2_7        *              1             0             1 
     8 s_1_2        *              0             0             1 
     9 t_1_2                 94.2063             0               
    10 s_1_8        *              1             0             1 
    11 s_2_2        *              1             0             1 
    12 t_2_2                 111.883             0               
    13 s_2_8        *              0             0             1 
    14 s_1_3        *              1             0             1 
    15 t_1_3                 94.2063             0               
    16 s_2_3        *              0             0             1 
    17 t_2_3                 94.2063             0               
    18 s_1_4        *              1             0             1 
    19 t_1_4                 163.661             0               
    20 s_2_4        *              0             0             1 
    21 t_2_4                 163.661             0               
    22 s_1_5        *              0             0             1 
    23 t_1_5                 94.2063             0               
    24 s_2_5        *              1             0             1 
    25 t_2_5                 157.968             0               
    26 s_1_6        *              1             0             1 
    27 t_1_6                 200.705             0               
    28 s_2_6        *              0             0             1 
    29 t_2_6                 200.705             0               
    30 t_1_7                       0             0               
    31 t_2_7                       0             0               
    32 t_1_8                       0             0               
    33 t_2_8                       0             0               
    34 r_1_1_2      *              1             0             1 
    35 u_1_1_2      *              0             0             1 
    36 r_2_1_2      *              0             0             1 
    37 u_2_1_2      *              0             0             1 
    38 r_1_1_3      *              1             0             1 
    39 u_1_1_3      *              0             0             1 
    40 r_2_1_3      *              1             0             1 
    41 u_2_1_3      *              0             0             1 
    42 r_1_1_4      *              1             0             1 
    43 u_1_1_4      *              0             0             1 
    44 r_2_1_4      *              1             0             1 
    45 u_2_1_4      *              0             0             1 
    46 r_1_1_5      *              1             0             1 
    47 u_1_1_5      *              0             0             1 
    48 r_2_1_5      *              0             0             1 
    49 u_2_1_5      *              0             0             1 
    50 r_1_1_8      *              1             0             1 
    51 u_1_1_8      *              0             0             1 
    52 r_2_1_8      *              1             0             1 
    53 u_2_1_8      *              0             0             1 
    54 r_1_2_3      *              1             0             1 
    55 u_1_2_3      *              0             0             1 
    56 r_2_2_3      *              1             0             1 
    57 u_2_2_3      *              0             0             1 
    58 r_1_2_4      *              1             0             1 
    59 u_1_2_4      *              0             0             1 
    60 r_2_2_4      *              1             0             1 
    61 u_2_2_4      *              0             0             1 
    62 r_1_2_5      *              1             0             1 
    63 u_1_2_5      *              0             0             1 
    64 r_2_2_5      *              0             0             1 
    65 u_2_2_5      *              0             0             1 
    66 r_1_2_7      *              1             0             1 
    67 u_1_2_7      *              0             0             1 
    68 r_2_2_7      *              0             0             1 
    69 u_2_2_7      *              1             0             1 
    70 r_1_3_5      *              1             0             1 
    71 u_1_3_5      *              0             0             1 
    72 r_2_3_5      *              1             0             1 
    73 u_2_3_5      *              0             0             1 
    74 r_1_3_7      *              1             0             1 
    75 u_1_3_7      *              0             0             1 
    76 r_2_3_7      *              1             0             1 
    77 u_2_3_7      *              0             0             1 
    78 r_1_4_5      *              1             0             1 
    79 u_1_4_5      *              0             0             1 
    80 r_2_4_5      *              1             0             1 
    81 u_2_4_5      *              0             0             1 
    82 r_1_4_7      *              1             0             1 
    83 u_1_4_7      *              0             0             1 
    84 r_2_4_7      *              1             0             1 
    85 u_2_4_7      *              0             0             1 
    86 r_1_7_8      *              1             0             1 
    87 u_1_7_8      *              0             0             1 
    88 r_2_7_8      *              1             0             1 
    89 u_2_7_8      *              0             0             1 

Integer feasibility conditions:

KKT.PE: max.abs.err = 4.55e-13 on row 58
        max.rel.err = 1.10e-16 on row 58
        High quality

KKT.PB: max.abs.err = 0.00e+00 on row 0
        max.rel.err = 0.00e+00 on row 0
        High quality

End of output
